TCS_Benchmarks/redos_fix/regexlib2_output_distinct_3482_3481_132_0.txt
MON|TUE|WED|THU|FRI|SAT|SUN
[A-Z]*